p cnf 36 186
1 2 3 4 5 6 0
7 8 9 10 11 12 0
13 14 15 16 17 18 0
19 20 21 22 23 24 0
25 26 27 28 29 30 0
31 32 33 34 35 36 0
-6 -5 0
-6 -4 0
-6 -3 0
-6 -2 0
-6 -1 0
-5 -4 0
-5 -3 0
-5 -2 0
-5 -1 0
-4 -3 0
-4 -2 0
-4 -1 0
-3 -2 0
-3 -1 0
-2 -1 0
-12 -11 0
-12 -10 0
-12 -9 0
-12 -8 0
-12 -7 0
-11 -10 0
-11 -9 0
-11 -8 0
-11 -7 0
-10 -9 0
-10 -8 0
-10 -7 0
-9 -8 0
-9 -7 0
-8 -7 0
-18 -17 0
-18 -16 0
-18 -15 0
-18 -14 0
-18 -13 0
-17 -16 0
-17 -15 0
-17 -14 0
-17 -13 0
-16 -15 0
-16 -14 0
-16 -13 0
-15 -14 0
-15 -13 0
-14 -13 0
-24 -23 0
-24 -22 0
-24 -21 0
-24 -20 0
-24 -19 0
-23 -22 0
-23 -21 0
-23 -20 0
-23 -19 0
-22 -21 0
-22 -20 0
-22 -19 0
-21 -20 0
-21 -19 0
-20 -19 0
-30 -29 0
-30 -28 0
-30 -27 0
-30 -26 0
-30 -25 0
-29 -28 0
-29 -27 0
-29 -26 0
-29 -25 0
-28 -27 0
-28 -26 0
-28 -25 0
-27 -26 0
-27 -25 0
-26 -25 0
-36 -35 0
-36 -34 0
-36 -33 0
-36 -32 0
-36 -31 0
-35 -34 0
-35 -33 0
-35 -32 0
-35 -31 0
-34 -33 0
-34 -32 0
-34 -31 0
-33 -32 0
-33 -31 0
-32 -31 0
-6 -12 0
-5 -11 0
-4 -10 0
-3 -9 0
-2 -8 0
-1 -7 0
-6 -18 0
-5 -17 0
-4 -16 0
-3 -15 0
-2 -14 0
-1 -13 0
-6 -24 0
-5 -23 0
-4 -22 0
-3 -21 0
-2 -20 0
-1 -19 0
-6 -30 0
-5 -29 0
-4 -28 0
-3 -27 0
-2 -26 0
-1 -25 0
-6 -36 0
-5 -35 0
-4 -34 0
-3 -33 0
-2 -32 0
-1 -31 0
-12 -18 0
-11 -17 0
-10 -16 0
-9 -15 0
-8 -14 0
-7 -13 0
-12 -24 0
-11 -23 0
-10 -22 0
-9 -21 0
-8 -20 0
-7 -19 0
-12 -30 0
-11 -29 0
-10 -28 0
-9 -27 0
-8 -26 0
-7 -25 0
-12 -36 0
-11 -35 0
-10 -34 0
-9 -33 0
-8 -32 0
-7 -31 0
-18 -24 0
-17 -23 0
-16 -22 0
-15 -21 0
-14 -20 0
-13 -19 0
-18 -30 0
-17 -29 0
-16 -28 0
-15 -27 0
-14 -26 0
-13 -25 0
-18 -36 0
-17 -35 0
-16 -34 0
-15 -33 0
-14 -32 0
-13 -31 0
-24 -30 0
-23 -29 0
-22 -28 0
-21 -27 0
-20 -26 0
-19 -25 0
-24 -36 0
-23 -35 0
-22 -34 0
-21 -33 0
-20 -32 0
-19 -31 0
-30 -36 0
-29 -35 0
-28 -34 0
-27 -33 0
-26 -32 0
-25 -31 0
